p cnf 20 23
-3 -16 18 0
5 12 -9 0
-13 -2 20 0
12 -9 -5 0
19 -4 6 0
9 12 -5 0
-1 4 -11 0
13 -2 -19 0
5 17 9 0
15 9 -17 0
-5 -9 -12 0
6 11 4 0
-15 -17 7 0
-6 19 13 0
-12 -9 5 0
12 1 14 0
20 3 2 0
10 -7 -8 0
-5 9 -12 0
18 -20 3 0
-10 -18 -16 0
1 -11 -14 0
8 -7 -15 0
-8 16 -10 0
